102056.77
0 177 133 14 84 134 85 170 11 38 165 164 0 
0 105 185 160 115 90 143 68 42 190 43 66 137 89 113 0 
0 61 99 50 169 75 162 163 148 92 146 18 73 145 24 0 
0 6 95 126 97 161 9 110 25 56 118 72 181 0 
0 172 174 155 36 122 138 37 88 20 124 15 166 0 
0 65 102 8 178 35 180 69 108 52 150 7 70 0 
0 28 4 64 156 189 93 22 91 142 114 140 121 173 21 135 0 
0 98 130 39 109 57 131 80 10 77 119 71 0 
0 139 120 48 59 5 103 47 171 45 58 111 153 154 0 
0 195 198 53 158 1 191 136 197 192 184 199 41 94 0 
0 29 79 83 13 123 128 19 78 176 167 179 27 63 0 
0 96 16 117 3 55 44 106 32 187 40 76 151 0 
0 60 26 100 81 168 12 149 51 132 46 175 34 0 
0 159 67 104 183 23 116 62 144 74 49 182 107 82 0 
0 188 33 193 194 196 186 86 112 2 101 141 0 
0 152 54 125 30 157 127 87 17 129 147 0 
